param Riesgos:=
0[1]
1[1]	4		6	
2[1]
3[1]	4	
4[1]	2		3		5	
5[1]
6[1]	3	
7[1]	2		3		4	
8[1]	6	
9[1]	6	
10[1]	6	
11[1]	6	
12[1]
13[1]	3		5		6	
14[1]	1	
0[2]	1		4	
1[2]	1		4	
2[2]
3[2]	3		6	
0[3]	1	
1[3]	3		5	
2[3]
3[3]
4[3]	2		3		6	
5[3]
6[3]
7[3]	5	
8[3]	1	
9[3]	2	
10[3]
